evm/ejemplos_dzn/EthPriceMintModule_run_code_of_0_block_78_0_input.dzn
TERM = { '.', s2, s3, s4, s5, s6};
null = '.';
s = 5;
n = 2;
min = 5;
N0 = 0;
ZEROARYOP = {};
zeroout = [];
zerogas = [];
zerosz =  [];
zerolb =  [];
zeroub =  [];
N1 = 1;
UNARYOP = { SLOAD_0 };
unin = [ s6 ];
unout = [ s4 ];
ungas = [ 2100 ];
unsz = [ 1 ];
unlb = [ 1 ];
unub = [ 5 ];
N2 = 1;
BINARYOP = { SUB_0 };
binin1 = [s4 ];
binin2 = [s5 ];
binout = [s3 ];
bincomm = [false ];
bingas = [3 ];
binsz = [1 ];
binlb = [ 1 ];
binub = [ 5 ];
NA = 0;
ASSOCIATIVEADDOP = {};
naddin =  [];
addin =  [||];
addout = [];
addcomm = [];
addgas = [];
addsz =  [];
addlb =  [];
addub =  [];
NPUSH = 3;
PUSHOP = { 'PUSH [tag]_0', PUSH_0, PUSH_1 };
pushout = [ s2, s5, s6 ];
pushgas = [ 3, 3, 3 ];
pushsz = [ 3, 2, 2 ];
pushlb = [ 1, 1, 1 ];
pushub = [ 5, 5, 5 ];
NSTORE = 0;
STOROP = {};
storin1 =  [];
storin2 =  [];
storlb =  [];
storub =  [];
storgas = [];
storsz = [];
DUP_ENUM = { DUP1};
SWAP_ENUM = { SWAP1};
startstack = [ null, null ];
endstack = [ s2, s3 ];
m_dep_n = 0;
memory_dependences = [| |];
s_dep_n = 0;
store_dependences = [| |];
lib = false;
nlib = 0;
lib_elem = [| |];
lib_dis = [];
