evm/ejemplos_results/EthPriceMintModule_run_code_of_0_block_78_0_input.txt
value = 5;
fgas = [3, 3, 2100, 3, 3];
fsize = [2, 2, 1, 1, 3];
states = 
[| '.', '.'
 |  s5, '.'
 |  s6,  s5
 |  s4,  s5
 |  s3, '.'
 |  s2,  s3
 |];
program = [P(PUSH_0), P(PUSH_1), U(SLOAD_0), BI(SUB_0), P('PUSH [tag]_0')];
% time elapsed: 0.55 s
----------
==========
% time elapsed: 0.55 s
% [value > 4]
